This is Ipopt version 3.14.16, running with linear solver MUMPS 5.7.3.

Number of nonzeros in equality constraint Jacobian...:        0
Number of nonzeros in inequality constraint Jacobian.:      448
Number of nonzeros in Lagrangian Hessian.............:        0

Total number of variables............................:       14
                     variables with only lower bounds:        0
                variables with lower and upper bounds:       14
                     variables with only upper bounds:        0
Total number of equality constraints.................:        0
Total number of inequality constraints...............:       32
        inequality constraints with only lower bounds:        0
   inequality constraints with lower and upper bounds:        0
        inequality constraints with only upper bounds:       32

iter    objective    inf_pr   inf_du lg(mu)  ||d||  lg(rg) alpha_du alpha_pr  ls
   0  1.6174105e-02 0.00e+00 7.33e-01   0.0 0.00e+00    -  0.00e+00 0.00e+00   0
   1  1.5992477e-02 0.00e+00 7.11e-02  -5.8 5.47e-02    -  9.33e-01 1.00e+00h  1
   2  1.4938958e-02 0.00e+00 1.07e-02  -7.0 9.58e-02    -  9.87e-01 1.00e+00h  1
   3  8.3783782e-03 0.00e+00 2.44e-03  -8.8 7.22e-01    -  8.14e-01 1.00e+00h  1
   4  5.7473756e-03 0.00e+00 3.99e-03  -5.6 2.84e-01    -  2.98e-01 1.00e+00h  1
   5  5.6535596e-03 8.14e-03 6.81e-04  -5.2 1.78e-01    -  8.28e-01 9.49e-01h  1
   6  5.6487045e-03 1.03e-03 5.71e-04  -5.3 7.90e-02    -  8.84e-01 1.00e+00h  1
   7  5.5404989e-03 1.74e-03 8.10e-04  -5.3 1.40e-01    -  9.17e-01 1.00e+00h  1
   8  5.3492682e-03 7.92e-04 1.29e-03  -5.6 2.21e-01    -  1.00e+00 1.00e+00h  1
   9  5.3473866e-03 1.83e-03 3.88e-04  -5.1 7.56e-02    -  1.00e+00 1.00e+00h  1
iter    objective    inf_pr   inf_du lg(mu)  ||d||  lg(rg) alpha_du alpha_pr  ls
  10  5.3550130e-03 0.00e+00 9.12e-04  -5.7 1.91e-03    -  1.00e+00 1.00e+00h  1

Number of Iterations....: 10

                                   (scaled)                 (unscaled)
Objective...............:   5.3550129735708621e-03    5.3550129735708621e-03
Dual infeasibility......:   9.1207073037085501e-04    9.1207073037085501e-04
Constraint violation....:   0.0000000000000000e+00    0.0000000000000000e+00
Variable bound violation:   0.0000000000000000e+00    0.0000000000000000e+00
Complementarity.........:   3.2089255280328007e-06    3.2089255280328007e-06
Overall NLP error.......:   9.1207073037085501e-04    9.1207073037085501e-04


Number of objective function evaluations             = 11
Number of objective gradient evaluations             = 11
Number of equality constraint evaluations            = 0
Number of inequality constraint evaluations          = 11
Number of equality constraint Jacobian evaluations   = 0
Number of inequality constraint Jacobian evaluations = 11
Number of Lagrangian Hessian evaluations             = 0
Total seconds in IPOPT                               = 1.608

EXIT: Optimal Solution Found.
